120
150
65
29
95
33
32
21
23
84
85
32
83
34
70
80
20
51
100
72
58
30
62
49
45
83
66
96
57
45
59
91
54
55
27
68
51
51
46
48
23
33
27
33
89
54
30
36
30
75
75
70
80
27
95
55
49
30
50
26
54
89
33
60
83
66
66
51
37
65
96
44
54
41
33
78
49
55
95
95
77
21
60
36
54
54
52
44
38
78
47
27
41
91
56
25
23
21
53
41
56
80
80
66
68
77
73
33
51
80
70
89
68
81
66
27
54
96
34
44
62
44
